<number of tasks>
20


<number of equipment>
5


<cycle time>
1000


<investment costs>
1,24236
2,25002
3,6674
4,27795
5,27676


<task times>
1,120,159,-1,70,-1
2,71,77,-1,60,-1
3,-1,99,-1,80,95
4,-1,163,-1,151,129
5,109,-1,323,-1,-1
6,114,115,-1,99,-1
7,98,-1,146,-1,-1
8,120,107,-1,110,-1
9,-1,124,-1,65,142
10,91,75,-1,62,-1
11,-1,113,-1,86,80
12,109,109,-1,71,-1
13,-1,95,-1,63,64
14,204,111,-1,164,-1
15,113,108,-1,118,-1
16,146,-1,333,-1,-1
17,87,67,-1,63,-1
18,-1,135,-1,129,140
19,-1,131,-1,74,68
20,110,101,-1,63,-1


<precedence relations>
1,4
2,4
3,4
4,5
4,6
4,7
5,8
5,9
5,10
6,16
7,10
8,15
9,15
10,11
10,12
10,13
11,14
11,15
12,14
13,14
13,15
14,17
14,18
15,16
16,17
16,18
17,19
18,20


<task types>
1,3
2,3
3,2
4,2
5,1
6,3
7,1
8,3
9,2
10,3
11,2
12,3
13,2
14,3
15,3
16,1
17,3
18,2
19,2
20,3


<line depot>
1,0
2,2
3,3
4,1
5,0


<processing costs>
1,14400
2,14400
3,7200
4,14400
5,7200


<saving costs>
1,2423
2,2500
3,667
4,2779
5,2767


<end>
